Welcome to the CBC MILP Solver 
Version: Trunk
Build Date: Apr 16 2020 

Starting solution of the Linear programming relaxation problem using Primal Simplex

Using Python-MIP package version 1.8.1
Machines:  3 Jobs:  3
Order: 
Job  0 : machine 1 ( 7 ) machine 2 ( 7 ) machine 0 ( 1 ) 
Job  1 : machine 1 ( 4 ) machine 0 ( 3 ) machine 2 ( 7 ) 
Job  2 : machine 1 ( 7 ) machine 2 ( 6 ) machine 0 ( 2 ) 
K:  33
Job  0 , e: machine  0 ( 14 ) machine  1 ( 0 ) machine  2 ( 7 ) 
Job  1 , e: machine  0 ( 4 ) machine  1 ( 0 ) machine  2 ( 7 ) 
Job  2 , e: machine  0 ( 13 ) machine  1 ( 0 ) machine  2 ( 7 ) 
Job  0 , f: machine  0 ( 0 ) machine  1 ( 8 ) machine  2 ( 1 ) 
Job  1 , f: machine  0 ( 7 ) machine  1 ( 10 ) machine  2 ( 0 ) 
Job  2 , f: machine  0 ( 0 ) machine  1 ( 8 ) machine  2 ( 2 ) 
EST and LST:
Job: 0 Machine: 0 EST: 14 LST: 32
Job: 0 Machine: 1 EST: 0 LST: 18
Job: 0 Machine: 2 EST: 7 LST: 25
Job: 1 Machine: 0 EST: 4 LST: 23
Job: 1 Machine: 1 EST: 0 LST: 19
Job: 1 Machine: 2 EST: 7 LST: 26
Job: 2 Machine: 0 EST: 13 LST: 31
Job: 2 Machine: 1 EST: 0 LST: 18
Job: 2 Machine: 2 EST: 7 LST: 25
Order:
Job: 0 Machine: 0 = 2 
Job: 0 Machine: 1 = 0 
Job: 0 Machine: 2 = 1 
Job: 1 Machine: 0 = 1 
Job: 1 Machine: 1 = 0 
Job: 1 Machine: 2 = 2 
Job: 2 Machine: 0 = 2 
Job: 2 Machine: 1 = 0 
Job: 2 Machine: 2 = 1 
Distances:
Job 0, Machine 1 -> Machine 2: distance 7
Job 0, Machine 1 -> Machine 0: distance 14
Job 0, Machine 2 -> Machine 0: distance 7
Job 1, Machine 1 -> Machine 0: distance 4
Job 1, Machine 1 -> Machine 2: distance 7
Job 1, Machine 0 -> Machine 2: distance 3
Job 2, Machine 1 -> Machine 2: distance 7
Job 2, Machine 1 -> Machine 0: distance 13
Job 2, Machine 2 -> Machine 0: distance 6
McCormic linearization
[(0, 1), (2, 1), (2, 0), (1, 0), (1, 1)]
obj:  0.0
solutions:  1
+ 0.14285714285714285x(0,1) + 0.14285714285714285x(2,1) 
C:  18.5
x(0,0) = 17.50	 x(0,1) = 3.50	 x(0,2) = 10.50	 
x(1,0) = 8.50	 x(1,1) = 4.50	 x(1,2) = 11.50	 
x(2,0) = 16.50	 x(2,1) = 3.50	 x(2,2) = 10.50	 
y(0,1,0) = 0.00	 y(1,0,0) = 1.00	 
y(0,2,0) = 0.90	 y(2,0,0) = 0.10	 
y(1,2,0) = 0.59	 y(2,1,0) = 0.41	 
y(0,1,1) = 0.22	 y(1,0,1) = 0.78	 
y(0,2,1) = 0.50	 y(2,0,1) = 0.50	 
y(1,2,1) = 0.36	 y(2,1,1) = 0.64	 
y(0,1,2) = 0.50	 y(1,0,2) = 0.50	 
y(0,2,2) = 0.42	 y(2,0,2) = 0.58	 
y(1,2,2) = 0.50	 y(2,1,2) = 0.50	 
obj:  0.7948717948717949
solutions:  1
+ 0.025641025641025644x(1,2) + 0.021978021978021973x(2,2) + 0.025641025641025644x(0,2) 
[(0, 1), (1, 2), (2, 1), (2, 2), (0, 2)]
cliques:  1 mip: 20
C:  21.341176470587367
x(0,0) = 20.22	 x(0,1) = 6.22	 x(0,2) = 13.22	 
x(1,0) = 7.88	 x(1,1) = 2.37	 x(1,2) = 14.34	 
x(2,0) = 19.34	 x(2,1) = 0.78	 x(2,2) = 13.34	 
y(0,1,0) = 0.00	 y(1,0,0) = 1.00	 
y(0,2,0) = 0.06	 y(2,0,0) = 0.94	 
y(1,2,0) = 0.65	 y(2,1,0) = 0.35	 
y(0,1,1) = 0.01	 y(1,0,1) = 0.99	 
y(0,2,1) = 0.21	 y(2,0,1) = 0.79	 
y(1,2,1) = 0.45	 y(2,1,1) = 0.55	 
y(0,1,2) = 0.31	 y(1,0,2) = 0.69	 
y(0,2,2) = 0.25	 y(2,0,2) = 0.75	 
y(1,2,2) = 0.69	 y(2,1,2) = 0.31	 
obj:  0.5332399626519353
solutions:  1
+ 0.25x(2,1) + 0.14285714285714285x(1,1) 
[(1, 2), (0, 2), (2, 1), (2, 0), (1, 0), (1, 1)]
cliques:  1 mip: 43
C:  22.778785089737692
x(0,0) = 21.78	 x(0,1) = 5.52	 x(0,2) = 14.78	 
x(1,0) = 10.24	 x(1,1) = 4.41	 x(1,2) = 13.24	 
x(2,0) = 18.82	 x(2,1) = 1.48	 x(2,2) = 12.82	 
y(0,1,0) = 0.00	 y(1,0,0) = 1.00	 
y(0,2,0) = 0.00	 y(2,0,0) = 1.00	 
y(1,2,0) = 0.96	 y(2,1,0) = 0.04	 
y(0,1,1) = 0.13	 y(1,0,1) = 0.87	 
y(0,2,1) = 0.21	 y(2,0,1) = 0.79	 
y(1,2,1) = 0.16	 y(2,1,1) = 0.84	 
y(0,1,2) = 0.66	 y(1,0,2) = 0.34	 
y(0,2,2) = 0.64	 y(2,0,2) = 0.36	 
y(1,2,2) = 0.32	 y(2,1,2) = 0.68	 
obj:  0.9999999999999999
erro
[(1, 2), (0, 2), (2, 2)]
cliques:  0 mip: 49
C:  23.999875501160574
x(0,0) = 23.00	 x(0,1) = 4.48	 x(0,2) = 11.48	 
x(1,0) = 12.47	 x(1,1) = 1.52	 x(1,2) = 15.47	 
x(2,0) = 20.06	 x(2,1) = 3.13	 x(2,2) = 14.06	 
y(0,1,0) = 0.00	 y(1,0,0) = 1.00	 
y(0,2,0) = 0.00	 y(2,0,0) = 1.00	 
y(1,2,0) = 0.94	 y(2,1,0) = 0.06	 
y(0,1,1) = 0.11	 y(1,0,1) = 0.89	 
y(0,2,1) = 0.36	 y(2,0,1) = 0.64	 
y(1,2,1) = 0.34	 y(2,1,1) = 0.66	 
y(0,1,2) = 0.78	 y(1,0,2) = 0.22	 
y(0,2,2) = 0.65	 y(2,0,2) = 0.35	 
y(1,2,2) = 0.19	 y(2,1,2) = 0.81	 
obj:  0.5652009566012509
solutions:  1
+ 0.06666666666666665x(0,1) + 0.06666666666666667x(2,1) + 0.0380952380952381x(1,1) 
[(0, 1), (0, 2), (2, 1), (2, 2), (1, 1)]
cliques:  1 mip: 46
C:  24.761832009919054
x(0,0) = 23.76	 x(0,1) = 4.09	 x(0,2) = 11.61	 
x(1,0) = 13.88	 x(1,1) = 9.88	 x(1,2) = 16.88	 
x(2,0) = 18.27	 x(2,1) = 5.27	 x(2,2) = 12.27	 
y(0,1,0) = 0.00	 y(1,0,0) = 1.00	 
y(0,2,0) = 0.00	 y(2,0,0) = 1.00	 
y(1,2,0) = 0.98	 y(2,1,0) = 0.02	 
y(0,1,1) = 0.82	 y(1,0,1) = 0.18	 
y(0,2,1) = 0.77	 y(2,0,1) = 0.23	 
y(1,2,1) = 0.10	 y(2,1,1) = 0.90	 
y(0,1,2) = 0.91	 y(1,0,2) = 0.09	 
y(0,2,2) = 0.28	 y(2,0,2) = 0.72	 
y(1,2,2) = 0.11	 y(2,1,2) = 0.89	 
obj:  1.0
erro
[(0, 1), (0, 2), (2, 1), (2, 2), (1, 1)]
cliques:  0 mip: 46
C:  25.126896444367304
x(0,0) = 24.13	 x(0,1) = 4.83	 x(0,2) = 11.83	 
x(1,0) = 13.01	 x(1,1) = 9.01	 x(1,2) = 16.01	 
x(2,0) = 19.02	 x(2,1) = 5.02	 x(2,2) = 13.02	 
y(0,1,0) = 0.00	 y(1,0,0) = 1.00	 
y(0,2,0) = 0.00	 y(2,0,0) = 1.00	 
y(1,2,0) = 0.98	 y(2,1,0) = 0.02	 
y(0,1,1) = 0.67	 y(1,0,1) = 0.33	 
y(0,2,1) = 0.43	 y(2,0,1) = 0.57	 
y(1,2,1) = 0.45	 y(2,1,1) = 0.55	 
y(0,1,2) = 0.80	 y(1,0,2) = 0.20	 
y(0,2,2) = 0.73	 y(2,0,2) = 0.27	 
y(1,2,2) = 0.19	 y(2,1,2) = 0.81	 
obj:  1.0000000000000004
erro
[(0, 1), (1, 1), (2, 1)]
cliques:  0 mip: 42
C:  26.0
x(0,0) = 25.00	 x(0,1) = 1.76	 x(0,2) = 9.12	 
x(1,0) = 14.07	 x(1,1) = 9.57	 x(1,2) = 17.07	 
x(2,0) = 22.87	 x(2,1) = 8.40	 x(2,2) = 16.87	 
y(0,1,0) = 0.00	 y(1,0,0) = 1.00	 
y(0,2,0) = 0.00	 y(2,0,0) = 1.00	 
y(1,2,0) = 0.91	 y(2,1,0) = 0.09	 
y(0,1,1) = 0.51	 y(1,0,1) = 0.49	 
y(0,2,1) = 0.75	 y(2,0,1) = 0.25	 
y(1,2,1) = 0.23	 y(2,1,1) = 0.77	 
y(0,1,2) = 0.83	 y(1,0,2) = 0.17	 
y(0,2,2) = 0.79	 y(2,0,2) = 0.21	 
y(1,2,2) = 0.24	 y(2,1,2) = 0.76	 
obj:  1.0418977356534045
erro
[(0, 1), (1, 2), (2, 1), (2, 2), (1, 1)]
cliques:  0 mip: 41
C:  26.0
x(0,0) = 25.00	 x(0,1) = 4.72	 x(0,2) = 11.72	 
x(1,0) = 15.05	 x(1,1) = 10.17	 x(1,2) = 18.05	 
x(2,0) = 20.03	 x(2,1) = 7.03	 x(2,2) = 14.03	 
y(0,1,0) = 0.00	 y(1,0,0) = 1.00	 
y(0,2,0) = 0.00	 y(2,0,0) = 1.00	 
y(1,2,0) = 0.98	 y(2,1,0) = 0.02	 
y(0,1,1) = 0.63	 y(1,0,1) = 0.37	 
y(0,2,1) = 0.44	 y(2,0,1) = 0.56	 
y(1,2,1) = 0.35	 y(2,1,1) = 0.65	 
y(0,1,2) = 0.89	 y(1,0,2) = 0.11	 
y(0,2,2) = 0.79	 y(2,0,2) = 0.21	 
y(1,2,2) = 0.12	 y(2,1,2) = 0.88	 
obj:  1.170811268418158
erro
[(0, 1), (1, 1), (2, 1)]
cliques:  0 mip: 41
C:  26.0
x(0,0) = 25.00	 x(0,1) = 8.90	 x(0,2) = 15.90	 
x(1,0) = 12.31	 x(1,1) = 8.31	 x(1,2) = 15.31	 
x(2,0) = 17.64	 x(2,1) = 4.55	 x(2,2) = 11.64	 
y(0,1,0) = 0.00	 y(1,0,0) = 1.00	 
y(0,2,0) = 0.00	 y(2,0,0) = 1.00	 
y(1,2,0) = 1.00	 y(2,1,0) = 0.00	 
y(0,1,1) = 0.26	 y(1,0,1) = 0.74	 
y(0,2,1) = 0.11	 y(2,0,1) = 0.89	 
y(1,2,1) = 0.23	 y(2,1,1) = 0.77	 
y(0,1,2) = 0.45	 y(1,0,2) = 0.55	 
y(0,2,2) = 0.07	 y(2,0,2) = 0.93	 
y(1,2,2) = 0.46	 y(2,1,2) = 0.54	 
obj:  1.0560180128569505
erro
[(1, 2), (0, 1), (0, 2), (2, 2), (1, 1)]
cliques:  0 mip: 41
C:  26.0
x(0,0) = 25.00	 x(0,1) = 7.10	 x(0,2) = 14.10	 
x(1,0) = 13.17	 x(1,1) = 9.17	 x(1,2) = 16.17	 
x(2,0) = 18.85	 x(2,1) = 3.91	 x(2,2) = 12.85	 
y(0,1,0) = 0.00	 y(1,0,0) = 1.00	 
y(0,2,0) = 0.00	 y(2,0,0) = 1.00	 
y(1,2,0) = 0.99	 y(2,1,0) = 0.01	 
y(0,1,1) = 0.43	 y(1,0,1) = 0.57	 
y(0,2,1) = 0.15	 y(2,0,1) = 0.85	 
y(1,2,1) = 0.07	 y(2,1,1) = 0.93	 
y(0,1,2) = 0.59	 y(1,0,2) = 0.41	 
y(0,2,2) = 0.47	 y(2,0,2) = 0.53	 
y(1,2,2) = 0.22	 y(2,1,2) = 0.78	 
obj:  1.0585402302703122
erro
[(0, 1), (1, 2), (0, 2), (2, 2), (1, 1)]
cliques:  0 mip: 43
C:  26.0
x(0,0) = 25.00	 x(0,1) = 6.48	 x(0,2) = 16.69	 
x(1,0) = 11.17	 x(1,1) = 7.17	 x(1,2) = 14.17	 
x(2,0) = 17.42	 x(2,1) = 4.42	 x(2,2) = 11.42	 
y(0,1,0) = 0.00	 y(1,0,0) = 1.00	 
y(0,2,0) = 0.00	 y(2,0,0) = 1.00	 
y(1,2,0) = 1.00	 y(2,1,0) = 0.00	 
y(0,1,1) = 0.20	 y(1,0,1) = 0.80	 
y(0,2,1) = 0.20	 y(2,0,1) = 0.80	 
y(1,2,1) = 0.25	 y(2,1,1) = 0.75	 
y(0,1,2) = 0.31	 y(1,0,2) = 0.69	 
y(0,2,2) = 0.04	 y(2,0,2) = 0.96	 
y(1,2,2) = 0.38	 y(2,1,2) = 0.62	 
obj:  1.042266935698834
erro
[(1, 2), (0, 2), (2, 1), (2, 2), (1, 1)]
cliques:  0 mip: 41
C:  26.0
x(0,0) = 25.00	 x(0,1) = 5.93	 x(0,2) = 12.93	 
x(1,0) = 14.09	 x(1,1) = 9.57	 x(1,2) = 17.09	 
x(2,0) = 17.78	 x(2,1) = 4.78	 x(2,2) = 11.78	 
y(0,1,0) = 0.00	 y(1,0,0) = 1.00	 
y(0,2,0) = 0.00	 y(2,0,0) = 1.00	 
y(1,2,0) = 0.99	 y(2,1,0) = 0.01	 
y(0,1,1) = 0.51	 y(1,0,1) = 0.49	 
y(0,2,1) = 0.23	 y(2,0,1) = 0.77	 
y(1,2,1) = 0.09	 y(2,1,1) = 0.91	 
y(0,1,2) = 0.67	 y(1,0,2) = 0.33	 
y(0,2,2) = 0.21	 y(2,0,2) = 0.79	 
y(1,2,2) = 0.03	 y(2,1,2) = 0.97	 
obj:  1.0786416107302514
erro
[(0, 1), (1, 2), (2, 1), (1, 1), (0, 2)]
cliques:  0 mip: 43
C:  26.000000000000004
x(0,0) = 25.00	 x(0,1) = 3.26	 x(0,2) = 11.21	 
x(1,0) = 14.61	 x(1,1) = 10.16	 x(1,2) = 17.61	 
x(2,0) = 19.55	 x(2,1) = 6.52	 x(2,2) = 13.55	 
y(0,1,0) = 0.00	 y(1,0,0) = 1.00	 
y(0,2,0) = 0.00	 y(2,0,0) = 1.00	 
y(1,2,0) = 0.99	 y(2,1,0) = 0.01	 
y(0,1,1) = 0.63	 y(1,0,1) = 0.37	 
y(0,2,1) = 0.73	 y(2,0,1) = 0.27	 
y(1,2,1) = 0.20	 y(2,1,1) = 0.80	 
y(0,1,2) = 0.76	 y(1,0,2) = 0.24	 
y(0,2,2) = 0.54	 y(2,0,2) = 0.46	 
y(1,2,2) = 0.08	 y(2,1,2) = 0.92	 
obj:  1.0390509599096227
erro
[(0, 1), (0, 2), (2, 1), (2, 2), (1, 1)]
cliques:  0 mip: 44
C:  26.000000000000004
x(0,0) = 25.00	 x(0,1) = 2.48	 x(0,2) = 11.10	 
x(1,0) = 14.93	 x(1,1) = 10.68	 x(1,2) = 17.93	 
x(2,0) = 19.68	 x(2,1) = 6.68	 x(2,2) = 13.68	 
y(0,1,0) = 0.00	 y(1,0,0) = 1.00	 
y(0,2,0) = 0.00	 y(2,0,0) = 1.00	 
y(1,2,0) = 1.00	 y(2,1,0) = 0.00	 
y(0,1,1) = 0.74	 y(1,0,1) = 0.26	 
y(0,2,1) = 0.79	 y(2,0,1) = 0.21	 
y(1,2,1) = 0.16	 y(2,1,1) = 0.84	 
y(0,1,2) = 0.89	 y(1,0,2) = 0.11	 
y(0,2,2) = 0.62	 y(2,0,2) = 0.38	 
y(1,2,2) = 0.07	 y(2,1,2) = 0.93	 
obj:  1.0177450247013362
erro
[(0, 1), (0, 2), (2, 1), (2, 2), (1, 1)]
cliques:  0 mip: 43
C:  26.000000000000004
x(0,0) = 25.00	 x(0,1) = 2.62	 x(0,2) = 10.88	 
x(1,0) = 14.46	 x(1,1) = 10.46	 x(1,2) = 17.46	 
x(2,0) = 20.29	 x(2,1) = 7.29	 x(2,2) = 14.29	 
y(0,1,0) = 0.00	 y(1,0,0) = 1.00	 
y(0,2,0) = 0.00	 y(2,0,0) = 1.00	 
y(1,2,0) = 1.00	 y(2,1,0) = 0.00	 
y(0,1,1) = 0.69	 y(1,0,1) = 0.31	 
y(0,2,1) = 0.81	 y(2,0,1) = 0.19	 
y(1,2,1) = 0.24	 y(2,1,1) = 0.76	 
y(0,1,2) = 0.86	 y(1,0,2) = 0.14	 
y(0,2,2) = 0.71	 y(2,0,2) = 0.29	 
y(1,2,2) = 0.12	 y(2,1,2) = 0.88	 
obj:  1.0596332188486042
erro
[(0, 1), (2, 1), (1, 1), (2, 2), (0, 2)]
cliques:  0 mip: 44
C:  26.000000000000004
x(0,0) = 25.00	 x(0,1) = 2.33	 x(0,2) = 10.86	 
x(1,0) = 14.52	 x(1,1) = 10.52	 x(1,2) = 17.52	 
x(2,0) = 20.24	 x(2,1) = 7.24	 x(2,2) = 14.24	 
y(0,1,0) = 0.00	 y(1,0,0) = 1.00	 
y(0,2,0) = 0.00	 y(2,0,0) = 1.00	 
y(1,2,0) = 1.00	 y(2,1,0) = 0.00	 
y(0,1,1) = 0.70	 y(1,0,1) = 0.30	 
y(0,2,1) = 0.81	 y(2,0,1) = 0.19	 
y(1,2,1) = 0.23	 y(2,1,1) = 0.77	 
y(0,1,2) = 0.86	 y(1,0,2) = 0.14	 
y(0,2,2) = 0.70	 y(2,0,2) = 0.30	 
y(1,2,2) = 0.11	 y(2,1,2) = 0.89	 
obj:  1.0392538460648302
erro
[(0, 1), (0, 2), (2, 1), (2, 2), (1, 1)]
cliques:  0 mip: 40
C:  26.000000000000004
x(0,0) = 25.00	 x(0,1) = 4.77	 x(0,2) = 12.06	 
x(1,0) = 14.02	 x(1,1) = 9.54	 x(1,2) = 17.02	 
x(2,0) = 19.07	 x(2,1) = 4.78	 x(2,2) = 13.07	 
y(0,1,0) = 0.00	 y(1,0,0) = 1.00	 
y(0,2,0) = 0.00	 y(2,0,0) = 1.00	 
y(1,2,0) = 1.00	 y(2,1,0) = 0.00	 
y(0,1,1) = 0.51	 y(1,0,1) = 0.49	 
y(0,2,1) = 0.41	 y(2,0,1) = 0.59	 
y(1,2,1) = 0.09	 y(2,1,1) = 0.91	 
y(0,1,2) = 0.92	 y(1,0,2) = 0.08	 
y(0,2,2) = 0.41	 y(2,0,2) = 0.59	 
y(1,2,2) = 0.09	 y(2,1,2) = 0.91	 
obj:  1.0
erro
[(0, 1), (2, 1), (1, 1), (2, 2), (0, 2)]
cliques:  0 mip: 43
C:  26.000000000000004
x(0,0) = 25.00	 x(0,1) = 4.69	 x(0,2) = 12.16	 
x(1,0) = 14.02	 x(1,1) = 9.63	 x(1,2) = 17.02	 
x(2,0) = 23.00	 x(2,1) = 4.80	 x(2,2) = 13.10	 
y(0,1,0) = 0.00	 y(1,0,0) = 1.00	 
y(0,2,0) = 0.00	 y(2,0,0) = 1.00	 
y(1,2,0) = 0.96	 y(2,1,0) = 0.04	 
y(0,1,1) = 0.53	 y(1,0,1) = 0.47	 
y(0,2,1) = 0.42	 y(2,0,1) = 0.58	 
y(1,2,1) = 0.09	 y(2,1,1) = 0.91	 
y(0,1,2) = 0.91	 y(1,0,2) = 0.09	 
y(0,2,2) = 0.44	 y(2,0,2) = 0.56	 
y(1,2,2) = 0.09	 y(2,1,2) = 0.91	 
obj:  0.9999999999999996
erro
[(0, 1), (2, 1), (1, 1), (2, 2), (0, 2)]
cliques:  0 mip: 40
C:  26.0
x(0,0) = 25.00	 x(0,1) = 3.23	 x(0,2) = 10.23	 
x(1,0) = 13.88	 x(1,1) = 9.88	 x(1,2) = 16.88	 
x(2,0) = 20.01	 x(2,1) = 6.87	 x(2,2) = 13.87	 
y(0,1,0) = 0.00	 y(1,0,0) = 1.00	 
y(0,2,0) = 0.00	 y(2,0,0) = 1.00	 
y(1,2,0) = 0.98	 y(2,1,0) = 0.02	 
y(0,1,1) = 0.58	 y(1,0,1) = 0.42	 
y(0,2,1) = 0.54	 y(2,0,1) = 0.46	 
y(1,2,1) = 0.23	 y(2,1,1) = 0.77	 
y(0,1,2) = 0.68	 y(1,0,2) = 0.32	 
y(0,2,2) = 0.44	 y(2,0,2) = 0.56	 
y(1,2,2) = 0.27	 y(2,1,2) = 0.73	 
obj:  1.0499632963262049
erro
[(0, 1), (0, 2), (2, 1), (2, 2), (1, 1)]
cliques:  0 mip: 44
C:  26.0
x(0,0) = 25.00	 x(0,1) = 2.69	 x(0,2) = 10.53	 
x(1,0) = 15.40	 x(1,1) = 10.82	 x(1,2) = 18.40	 
x(2,0) = 19.44	 x(2,1) = 6.12	 x(2,2) = 13.12	 
y(0,1,0) = 0.00	 y(1,0,0) = 1.00	 
y(0,2,0) = 0.00	 y(2,0,0) = 1.00	 
y(1,2,0) = 0.99	 y(2,1,0) = 0.01	 
y(0,1,1) = 0.76	 y(1,0,1) = 0.24	 
y(0,2,1) = 0.62	 y(2,0,1) = 0.38	 
y(1,2,1) = 0.09	 y(2,1,1) = 0.91	 
y(0,1,2) = 0.86	 y(1,0,2) = 0.14	 
y(0,2,2) = 0.49	 y(2,0,2) = 0.51	 
y(1,2,2) = 0.06	 y(2,1,2) = 0.94	 
obj:  0.9999999999999951
erro
[(0, 1), (0, 2), (2, 1), (2, 2), (1, 1)]
cliques:  0 mip: 45
C:  26.0
x(0,0) = 25.00	 x(0,1) = 5.27	 x(0,2) = 12.27	 
x(1,0) = 13.86	 x(1,1) = 7.78	 x(1,2) = 16.86	 
x(2,0) = 21.31	 x(2,1) = 5.88	 x(2,2) = 12.91	 
y(0,1,0) = 0.00	 y(1,0,0) = 1.00	 
y(0,2,0) = 0.00	 y(2,0,0) = 1.00	 
y(1,2,0) = 0.33	 y(2,1,0) = 0.67	 
y(0,1,1) = 0.48	 y(1,0,1) = 0.52	 
y(0,2,1) = 0.30	 y(2,0,1) = 0.70	 
y(1,2,1) = 0.43	 y(2,1,1) = 0.57	 
y(0,1,2) = 0.70	 y(1,0,2) = 0.30	 
y(0,2,2) = 0.39	 y(2,0,2) = 0.61	 
y(1,2,2) = 0.21	 y(2,1,2) = 0.79	 
obj:  1.0398092867206954
erro
[(0, 1), (2, 1), (1, 1), (2, 2), (0, 2)]
cliques:  0 mip: 45
C:  26.0
x(0,0) = 25.00	 x(0,1) = 3.45	 x(0,2) = 10.45	 
x(1,0) = 14.58	 x(1,1) = 10.32	 x(1,2) = 17.58	 
x(2,0) = 19.81	 x(2,1) = 6.81	 x(2,2) = 13.81	 
y(0,1,0) = 0.00	 y(1,0,0) = 1.00	 
y(0,2,0) = 0.00	 y(2,0,0) = 1.00	 
y(1,2,0) = 0.99	 y(2,1,0) = 0.01	 
y(0,1,1) = 0.84	 y(1,0,1) = 0.16	 
y(0,2,1) = 0.51	 y(2,0,1) = 0.49	 
y(1,2,1) = 0.32	 y(2,1,1) = 0.68	 
y(0,1,2) = 0.81	 y(1,0,2) = 0.19	 
y(0,2,2) = 0.57	 y(2,0,2) = 0.43	 
y(1,2,2) = 0.13	 y(2,1,2) = 0.87	 
obj:  1.0771813908640309
erro
[(0, 1), (0, 2), (2, 1), (2, 2), (1, 1)]
cliques:  0 mip: 45
C:  26.0
x(0,0) = 25.00	 x(0,1) = 3.47	 x(0,2) = 10.47	 
x(1,0) = 14.52	 x(1,1) = 9.15	 x(1,2) = 17.52	 
x(2,0) = 22.21	 x(2,1) = 6.49	 x(2,2) = 13.82	 
y(0,1,0) = 0.00	 y(1,0,0) = 1.00	 
y(0,2,0) = 0.00	 y(2,0,0) = 1.00	 
y(1,2,0) = 1.00	 y(2,1,0) = 0.00	 
y(0,1,1) = 0.65	 y(1,0,1) = 0.35	 
y(0,2,1) = 0.77	 y(2,0,1) = 0.23	 
y(1,2,1) = 0.17	 y(2,1,1) = 0.83	 
y(0,1,2) = 0.79	 y(1,0,2) = 0.21	 
y(0,2,2) = 0.57	 y(2,0,2) = 0.43	 
y(1,2,2) = 0.13	 y(2,1,2) = 0.87	 
obj:  1.0125115980006827
erro
[(0, 1), (0, 2), (2, 1), (2, 2), (1, 1)]
cliques:  0 mip: 44
C:  26.000000000000004
x(0,0) = 25.00	 x(0,1) = 3.28	 x(0,2) = 11.62	 
x(1,0) = 14.21	 x(1,1) = 9.82	 x(1,2) = 17.21	 
x(2,0) = 21.91	 x(2,1) = 6.11	 x(2,2) = 13.11	 
y(0,1,0) = 0.00	 y(1,0,0) = 1.00	 
y(0,2,0) = 0.00	 y(2,0,0) = 1.00	 
y(1,2,0) = 0.48	 y(2,1,0) = 0.52	 
y(0,1,1) = 0.69	 y(1,0,1) = 0.31	 
y(0,2,1) = 0.58	 y(2,0,1) = 0.42	 
y(1,2,1) = 0.28	 y(2,1,1) = 0.72	 
y(0,1,2) = 0.75	 y(1,0,2) = 0.25	 
y(0,2,2) = 0.45	 y(2,0,2) = 0.55	 
y(1,2,2) = 0.14	 y(2,1,2) = 0.86	 
obj:  1.2028639853001915
erro
[(0, 1), (2, 1), (2, 0), (2, 2), (1, 0), (0, 2)]
cliques:  0 mip: 47
C:  26.000000000000004
x(0,0) = 25.00	 x(0,1) = 2.49	 x(0,2) = 9.49	 
x(1,0) = 14.91	 x(1,1) = 10.23	 x(1,2) = 17.91	 
x(2,0) = 20.27	 x(2,1) = 6.66	 x(2,2) = 14.27	 
y(0,1,0) = 0.00	 y(1,0,0) = 1.00	 
y(0,2,0) = 0.00	 y(2,0,0) = 1.00	 
y(1,2,0) = 0.58	 y(2,1,0) = 0.42	 
y(0,1,1) = 0.65	 y(1,0,1) = 0.35	 
y(0,2,1) = 0.89	 y(2,0,1) = 0.11	 
y(1,2,1) = 0.14	 y(2,1,1) = 0.86	 
y(0,1,2) = 0.88	 y(1,0,2) = 0.12	 
y(0,2,2) = 0.64	 y(2,0,2) = 0.36	 
y(1,2,2) = 0.10	 y(2,1,2) = 0.90	 
obj:  1.1435397792776092
erro
[(0, 1), (2, 0), (1, 1), (2, 2), (1, 0), (0, 2)]
cliques:  0 mip: 0
iterações: 25 cortes cliques encontrados: 4 mip: 1038 objective:  26.000000000000004
Coin0506I Presolve 65 (-61) rows, 39 (-25) columns and 202 (-86) elements
Clp1000I sum of infeasibilities 3.24924e-06 - average 4.99884e-08, 0 fixed columns
Coin0506I Presolve 65 (0) rows, 39 (0) columns and 202 (0) elements
Clp0029I End of values pass after 39 iterations
Clp0000I Optimal - objective value 15
Clp0000I Optimal - objective value 15
Coin0511I After Postsolve, objective 15, infeasibilities - dual 0 (0), primal 0 (0)
Clp0000I Optimal - objective value 15
Clp0000I Optimal - objective value 15
Clp0000I Optimal - objective value 15
Coin0511I After Postsolve, objective 15, infeasibilities - dual 0 (0), primal 0 (0)
Clp0032I Optimal objective 15 - 0 iterations time 0.002, Presolve 0.00, Idiot 0.00
Coin3009W Conflict graph built in 0.000 seconds, density: 0.147%
